
List of user-set options:

                                    Name   Value                used
                          acceptable_tol = 1e-05                 yes
                        file_print_level = 5                     yes
                   hessian_approximation = limited-memory        yes
              limited_memory_max_history = 1000                  yes
                           linear_solver = mumps                 yes
                                max_iter = 100                   yes
                             output_file = output/IPOPT_summary.out  yes
                             print_level = 5                     yes
                      print_user_options = yes                   yes
                                      sb = yes                   yes
                        start_with_resto = yes                   yes
                                     tol = 1e-06                 yes
This is Ipopt version 3.13.4, running with linear solver mumps.
NOTE: Other linear solvers might be more efficient (see Ipopt documentation).

Number of nonzeros in equality constraint Jacobian...:     2184
Number of nonzeros in inequality constraint Jacobian.:    13635
Number of nonzeros in Lagrangian Hessian.............:        0

Total number of variables............................:      136
                     variables with only lower bounds:        0
                variables with lower and upper bounds:      136
                     variables with only upper bounds:        0
Total number of equality constraints.................:       17
Total number of inequality constraints...............:      101
        inequality constraints with only lower bounds:        0
   inequality constraints with lower and upper bounds:      101
        inequality constraints with only upper bounds:        0

iter    objective    inf_pr   inf_du lg(mu)  ||d||  lg(rg) alpha_du alpha_pr  ls
   0  1.2000120e-02 5.59e-01 2.07e-03   0.0 0.00e+00    -  0.00e+00 0.00e+00   0
   1r 1.2000120e-02 5.59e-01 9.99e+02  -0.3 0.00e+00    -  0.00e+00 0.00e+00R  1
   2r 2.5439387e-02 2.62e-03 9.97e+02   1.9 2.98e+02    -  2.59e-03 2.20e-03f  1
   3  2.5687748e-02 4.76e-05 3.86e-03  -1.5 1.04e-01    -  1.00e+00 1.00e+00h  1
   4  2.5449039e-02 1.28e-04 1.04e-02  -2.9 2.91e-02    -  9.96e-01 1.00e+00h  1
   5  2.4400733e-02 2.73e-03 7.49e-04  -3.8 1.20e-01    -  9.98e-01 1.00e+00h  1
   6  2.3414489e-02 3.59e-03 8.29e-03  -4.8 1.56e-01    -  9.96e-01 1.00e+00h  1
   7  2.2527668e-02 2.32e-03 9.19e-03  -5.1 2.31e-01    -  9.98e-01 1.00e+00h  1
   8  2.2294723e-02 7.46e-03 1.64e-03  -4.6 4.21e-01    -  1.00e+00 1.00e+00h  1
   9  2.2572271e-02 1.25e-02 1.53e-02  -4.9 3.22e-01    -  9.97e-01 1.00e+00h  1
iter    objective    inf_pr   inf_du lg(mu)  ||d||  lg(rg) alpha_du alpha_pr  ls
  10  2.2015884e-02 1.10e-02 4.73e-03  -5.0 2.56e-01    -  8.83e-01 1.00e+00h  1
  11  2.2109469e-02 3.44e-03 6.31e-04  -5.2 1.56e-01    -  1.00e+00 1.00e+00h  1
  12  2.2036214e-02 7.93e-04 9.46e-04  -5.7 1.39e-01    -  9.99e-01 1.00e+00h  1
  13  2.2191467e-02 1.29e-04 7.43e-04  -5.9 2.82e-01    -  1.00e+00 1.00e+00H  1
  14  2.1898027e-02 5.25e-03 8.08e-03  -5.6 2.62e-01    -  1.00e+00 1.00e+00h  1
  15  2.2158352e-02 2.03e-05 4.73e-03  -5.7 3.15e-01    -  9.94e-01 1.00e+00H  1
  16  2.1837884e-02 1.29e-03 9.79e-04  -5.9 1.91e-01    -  1.00e+00 1.00e+00h  1
  17  2.1966648e-02 2.44e-03 5.38e-03  -5.7 3.10e-01    -  1.00e+00 1.00e+00h  1
  18  2.1777310e-02 1.95e-03 2.50e-03  -5.8 2.01e-01    -  1.00e+00 1.00e+00h  1
  19  2.1821667e-02 5.37e-04 2.91e-03  -6.0 1.09e-01    -  1.00e+00 9.99e-01h  1
iter    objective    inf_pr   inf_du lg(mu)  ||d||  lg(rg) alpha_du alpha_pr  ls
  20  2.1777546e-02 2.05e-04 7.22e-04  -6.0 7.06e-02    -  9.45e-01 1.00e+00h  1
  21  2.1741081e-02 6.25e-05 2.13e-04  -6.3 1.63e-01    -  1.00e+00 1.00e+00h  1
  22  2.1720142e-02 1.87e-04 1.20e-03  -6.1 1.35e+00    -  1.00e+00 1.10e-01h  2
  23  2.1703486e-02 2.70e-04 2.93e-04  -6.1 3.59e-01    -  1.00e+00 3.79e-01h  2
  24  2.1721572e-02 3.68e-04 1.39e-04  -5.8 2.04e-01    -  9.91e-01 1.00e+00h  1
  25  2.1701695e-02 3.66e-04 2.38e-04  -5.9 1.46e-01    -  1.00e+00 1.00e+00h  1
  26  2.1665662e-02 1.58e-04 2.28e-04  -6.1 1.40e-01    -  1.00e+00 1.00e+00h  1
  27  2.1652049e-02 2.00e-04 4.57e-04  -6.4 1.66e-01    -  1.00e+00 1.00e+00h  1
  28  2.1616914e-02 1.46e-04 8.21e-05  -6.7 2.24e-01    -  1.00e+00 1.00e+00h  1
  29  2.1788835e-02 1.26e-04 3.28e-04  -6.3 2.76e-01    -  6.84e-01 9.27e-01H  1
iter    objective    inf_pr   inf_du lg(mu)  ||d||  lg(rg) alpha_du alpha_pr  ls
  30  2.1589182e-02 1.11e-03 1.83e-04  -6.5 1.91e-01    -  3.87e-01 1.00e+00h  1
  31  2.1608584e-02 2.96e-05 1.43e-04  -6.7 6.76e-02    -  1.00e+00 1.00e+00h  1
  32  2.1603107e-02 3.78e-05 4.33e-05  -6.8 7.44e-02    -  1.00e+00 1.00e+00h  1
  33  2.1610988e-02 1.48e-04 4.13e-04  -6.5 9.70e-02    -  7.48e-01 1.00e+00h  1
  34  2.1599940e-02 8.22e-05 3.16e-04  -6.7 5.72e-02    -  1.00e+00 1.00e+00h  1
  35  2.1594585e-02 3.36e-05 5.28e-05  -6.9 4.48e-02    -  1.00e+00 1.00e+00h  1
  36  2.1590896e-02 8.06e-06 1.29e-04  -7.0 4.96e-02    -  1.00e+00 1.00e+00h  1
  37  2.1599916e-02 5.66e-05 1.46e-04  -6.7 8.57e-02    -  1.00e+00 1.00e+00h  1
  38  2.1593644e-02 3.29e-05 6.00e-05  -6.8 5.10e-02    -  1.00e+00 1.00e+00h  1
  39  2.1593476e-02 4.52e-06 7.29e-05  -6.8 1.44e-02    -  1.00e+00 1.00e+00h  1
iter    objective    inf_pr   inf_du lg(mu)  ||d||  lg(rg) alpha_du alpha_pr  ls
  40  2.1586799e-02 7.10e-07 5.80e-05  -7.1 5.56e-02    -  1.00e+00 9.94e-01h  1
  41  2.1585807e-02 7.63e-06 5.81e-05  -7.1 2.61e-01    -  1.00e+00 2.95e-01h  2
  42  2.1585440e-02 2.81e-05 2.53e-05  -7.1 1.14e-01    -  1.00e+00 1.00e+00h  1
  43  2.1581084e-02 3.23e-05 4.87e-05  -7.6 5.42e-02    -  1.00e+00 1.00e+00h  1
  44  2.1582081e-02 1.27e-05 5.33e-05  -7.3 3.45e-02    -  1.00e+00 1.00e+00h  1
  45  2.1580642e-02 9.38e-07 4.32e-05  -7.7 2.59e-02    -  1.00e+00 1.00e+00h  1
  46  2.1579961e-02 2.47e-06 5.17e-05  -7.8 4.40e-02    -  1.00e+00 9.86e-01h  1
  47  2.1580653e-02 1.23e-05 4.66e-05  -7.5 1.26e-01    -  1.00e+00 1.00e+00h  1
  48  2.1579450e-02 2.32e-05 6.25e-05  -7.6 5.31e-02    -  1.00e+00 1.00e+00h  1
  49  2.1578406e-02 8.74e-06 7.42e-05  -7.9 2.87e-02    -  1.00e+00 1.00e+00h  1
iter    objective    inf_pr   inf_du lg(mu)  ||d||  lg(rg) alpha_du alpha_pr  ls
  50  2.1578125e-02 1.02e-06 4.42e-05  -8.2 2.69e-02    -  1.00e+00 1.00e+00h  1
  51  2.1577872e-02 1.16e-06 4.09e-05  -8.4 7.63e-02    -  9.99e-01 2.69e-01h  1
  52  2.1578111e-02 8.56e-06 3.65e-05  -7.6 1.71e-01    -  4.16e-01 6.79e-01h  1
  53  2.1577641e-02 1.13e-05 2.93e-05  -7.9 1.15e-01    -  5.83e-01 7.04e-01h  1
  54  2.1576452e-02 9.13e-06 4.25e-05  -8.2 6.28e-02    -  1.00e+00 1.00e+00f  1
  55  2.1576687e-02 1.59e-06 3.71e-05  -7.9 3.66e-02    -  1.00e+00 1.00e+00h  1
  56  2.1576295e-02 4.41e-06 2.72e-05  -8.0 1.23e-01    -  1.00e+00 9.91e-01h  1
  57  2.1577012e-02 5.39e-06 3.00e-05  -7.4 2.16e-01    -  9.87e-01 5.45e-01h  1
  58  2.1577395e-02 6.27e-06 3.54e-05  -7.5 1.05e-01    -  1.00e+00 1.00e+00h  1
  59  2.1576756e-02 3.89e-06 3.04e-05  -7.5 3.64e-02    -  1.00e+00 1.00e+00h  1
iter    objective    inf_pr   inf_du lg(mu)  ||d||  lg(rg) alpha_du alpha_pr  ls
  60  2.1576721e-02 1.17e-06 2.82e-05  -7.5 1.99e-02    -  1.00e+00 1.00e+00h  1
  61  2.1576571e-02 2.95e-09 2.68e-05  -7.5 1.46e-02    -  1.00e+00 1.00e+00h  1
  62  2.1575378e-02 4.64e-06 4.81e-05  -7.7 1.53e-01    -  1.00e+00 1.00e+00h  1
  63  2.1574939e-02 1.87e-05 1.55e-04  -7.7 1.62e-01    -  1.00e+00 1.00e+00h  1
  64  2.1573467e-02 1.50e-05 1.05e-04  -8.0 8.16e-02    -  1.00e+00 1.00e+00h  1
  65  2.1572762e-02 6.22e-06 2.14e-05  -8.2 4.47e-02    -  1.00e+00 1.00e+00h  1
  66  2.1573244e-02 8.33e-08 1.84e-05  -7.8 3.24e-02    -  1.00e+00 9.98e-01h  1
  67  2.1573831e-02 3.94e-06 2.66e-05  -7.5 1.48e-01    -  1.00e+00 5.05e-01h  1
  68  2.1573978e-02 5.00e-06 4.84e-05  -7.6 8.90e-02    -  1.00e+00 1.00e+00h  1
  69  2.1573744e-02 2.24e-06 6.30e-06  -7.6 4.53e-02    -  1.00e+00 1.00e+00h  1
iter    objective    inf_pr   inf_du lg(mu)  ||d||  lg(rg) alpha_du alpha_pr  ls
  70  2.1572579e-02 6.84e-07 2.36e-06  -8.0 3.96e-02    -  1.00e+00 1.00e+00h  1
  71  2.1571997e-02 3.57e-06 7.34e-06  -8.4 4.13e-02    -  1.00e+00 1.00e+00h  1
  72  2.1571998e-02 4.89e-06 1.74e-05  -8.5 7.20e-02    -  1.00e+00 1.00e+00h  1
  73  2.1571928e-02 8.58e-07 1.30e-05  -9.1 3.71e-02    -  1.00e+00 1.00e+00h  1
  74  2.1571876e-02 5.18e-07 1.24e-05  -9.3 1.89e-02    -  1.00e+00 1.00e+00h  1
  75  2.1571897e-02 2.24e-06 1.73e-06  -9.7 1.02e-02    -  1.00e+00 1.00e+00H  1
  76  2.1571747e-02 4.63e-07 2.83e-07 -10.6 9.02e-03    -  1.00e+00 1.00e+00h  1

Number of Iterations....: 76

                                   (scaled)                 (unscaled)
Objective...............:   2.1571746832319126e-02    2.1571746832319126e-02
Dual infeasibility......:   2.8332456972265551e-07    2.8332456972265551e-07
Constraint violation....:   4.6258875963101076e-07    4.6258875963101076e-07
Complementarity.........:   7.5697182519612601e-11    7.5697182519612601e-11
Overall NLP error.......:   4.6258875963101076e-07    4.6258875963101076e-07


Number of objective function evaluations             = 90
Number of objective gradient evaluations             = 76
Number of equality constraint evaluations            = 90
Number of inequality constraint evaluations          = 90
Number of equality constraint Jacobian evaluations   = 77
Number of inequality constraint Jacobian evaluations = 77
Number of Lagrangian Hessian evaluations             = 0
Total CPU secs in IPOPT (w/o function evaluations)   =    533.682
Total CPU secs in NLP function evaluations           =  28757.512

EXIT: Optimal Solution Found.
